p wcnf 159 188 189 
1 29 2 0 
1 153 -5 0 
1 -150 -27 0 
1 98 -42 0 
1 89 35 0 
1 8 97 0 
1 -110 45 0 
1 27 -78 0 
1 -128 -149 0 
1 -124 68 0 
1 -66 -61 0 
1 96 72 0 
1 18 32 0 
1 151 42 0 
1 -29 88 0 
1 126 117 0 
1 77 -43 0 
1 -153 -100 0 
1 126 49 0 
1 -24 -102 0 
1 -2 -121 0 
1 69 81 0 
1 80 -18 0 
1 52 -9 0 
1 155 95 0 
1 51 20 0 
1 -145 82 0 
1 -39 136 0 
1 58 -85 0 
1 -85 151 0 
1 -158 -47 0 
1 -16 -90 0 
1 14 -57 0 
1 -116 -57 0 
1 -41 125 0 
1 133 74 0 
1 -150 55 0 
1 84 148 0 
1 -73 127 0 
1 102 -80 0 
1 114 116 0 
1 -123 -152 0 
1 16 -159 0 
1 -50 124 0 
1 -56 -120 0 
1 -48 139 0 
1 72 76 0 
1 94 -14 0 
1 46 140 0 
1 -27 -144 0 
1 -126 4 0 
1 -64 94 0 
1 49 132 0 
1 152 18 0 
1 -36 -98 0 
1 -69 -64 0 
1 60 79 0 
1 -104 -156 0 
1 158 -106 0 
1 -47 -10 0 
1 -138 -17 0 
1 -112 -72 0 
1 -92 -116 0 
1 124 -63 0 
1 -42 -2 0 
1 -125 52 0 
1 104 111 0 
1 -134 -52 0 
1 144 -86 0 
1 55 63 0 
1 -132 -42 0 
1 2 -11 0 
1 -63 -25 0 
1 14 92 0 
1 138 133 0 
1 -34 144 0 
1 -33 -104 0 
1 -18 -124 0 
1 139 -19 0 
1 15 123 0 
1 42 -22 0 
1 91 110 0 
1 103 -65 0 
1 -147 104 0 
1 99 -97 0 
1 155 -146 0 
1 113 59 0 
1 -43 -111 0 
1 -9 46 0 
1 -148 -150 0 
1 68 94 0 
1 -57 -68 0 
1 32 -143 0 
1 -142 -62 0 
1 98 -94 0 
1 8 83 0 
1 125 154 0 
1 125 -126 0 
1 76 85 0 
1 124 64 0 
1 -129 -158 0 
1 -148 116 0 
1 159 51 0 
1 25 -40 0 
1 124 -159 0 
1 146 115 0 
1 113 -128 0 
1 103 -90 0 
1 -14 -102 0 
1 111 -123 0 
1 143 93 0 
1 -140 155 0 
1 30 -115 0 
1 -123 62 0 
1 -44 141 0 
1 -86 84 0 
1 119 51 0 
1 99 91 0 
1 108 48 0 
1 -88 -90 0 
1 -47 -80 0 
1 95 94 0 
1 39 -114 0 
1 -34 4 0 
1 -134 136 0 
1 -98 20 0 
1 17 128 0 
1 -31 113 0 
1 -51 -82 0 
1 -17 -26 0 
1 107 -6 0 
1 -54 -109 0 
1 158 -159 0 
1 27 -43 0 
1 108 41 0 
1 -79 96 0 
1 -154 135 0 
1 -67 -68 0 
1 76 -77 0 
1 -150 114 0 
1 -103 -27 0 
1 152 -115 0 
1 72 -95 0 
1 28 55 0 
1 127 -57 0 
1 -156 -15 0 
1 62 -142 0 
1 -115 -124 0 
1 -123 29 0 
1 -63 -80 0 
1 107 90 0 
1 -64 -87 0 
1 92 -132 0 
1 52 145 0 
1 -148 6 0 
1 -19 12 0 
1 -35 -118 0 
1 32 141 0 
1 38 122 0 
1 -125 -159 0 
1 156 92 0 
1 -128 -83 0 
1 -36 -153 0 
1 -66 130 0 
1 134 54 0 
1 88 145 0 
1 44 17 0 
1 -122 32 0 
1 -125 92 0 
1 96 17 0 
1 -31 -25 0 
1 -52 -66 0 
1 -56 65 0 
1 -91 -53 0 
1 -39 111 0 
1 114 91 0 
1 103 -111 0 
1 126 30 0 
1 31 75 0 
1 -117 70 0 
1 133 51 0 
1 46 139 0 
1 -87 -66 0 
1 -14 67 0 
1 -92 -112 0 
1 122 -148 0 
1 -155 116 0 
1 55 -118 0 
